<number of tasks>
70

<cycle time>
468

<task times>
1 17
2 66
3 54
4 52
5 6
6 88
7 21
8 128
9 68
10 70
11 85
12 21
13 134
14 135
15 94
16 90
17 50
18 143
19 19
20 54
21 50
22 40
23 73
24 12
25 152
26 42
27 45
28 74
29 26
30 11
31 31
32 50
33 102
34 46
35 35
36 40
37 2
38 1
39 3
40 13
41 16
42 25
43 21
44 43
45 30
46 83
47 89
48 56
49 59
50 43
51 11
52 26
53 44
54 121
55 38
56 68
57 22
58 7
59 16
60 32
61 25
62 27
63 156
64 28
65 15
66 26
67 18
68 72
69 23
70 27

<precedence relations>
1,2
1,41
1,69
1,70
2,3
3,4
3,68
4,6
4,7
5,6
5,24
5,30
6,8
7,8
8,12
9,10
10,11
11,12
12,13
12,14
13,23
14,23
15,16
16,17
16,18
17,19
18,19
19,20
19,22
19,57
20,21
21,23
22,23
23,25
23,31
23,33
24,25
25,26
25,27
25,28
25,29
26,35
27,35
28,35
29,35
30,31
31,32
32,35
33,34
34,35
35,36
35,44
35,48
35,51
35,53
35,56
35,60
35,61
35,62
36,37
37,38
38,39
39,40
40,42
41,42
42,43
43,50
44,45
45,46
46,47
47,50
48,49
49,50
51,52
52,54
53,54
54,55
57,58
58,59
59,60
61,65
62,63
63,64
64,65
64,66
64,67

<setup times forward>
1,10:15
1,11:15
1,16:15
1,17:15
1,18:5
1,19:5
1,20:5
1,21:5
1,22:5
1,24:15
1,30:15
1,41:5
1,69:13
1,70:13
2,10:15
2,11:15
2,16:15
2,17:15
2,18:5
2,19:5
2,20:5
2,21:5
2,22:5
2,24:15
2,30:15
2,41:5
2,69:13
2,70:13
3,10:15
3,11:15
3,16:15
3,17:15
3,18:5
3,19:5
3,20:5
3,21:5
3,22:5
3,24:15
3,30:15
3,41:5
3,69:13
3,70:13
4,10:15
4,11:15
4,16:15
4,17:15
4,18:5
4,19:5
4,20:5
4,21:5
4,22:5
4,24:15
4,30:15
4,41:5
4,69:13
4,70:13
5,10:15
5,11:15
5,16:15
5,17:15
5,18:5
5,19:5
5,20:5
5,21:5
5,22:5
5,24:15
5,30:15
5,41:5
5,69:13
5,70:13
6,8:15
6,10:15
6,11:15
6,16:15
6,17:15
6,18:5
6,19:5
6,20:5
6,21:5
6,22:5
6,24:15
6,30:15
6,41:5
6,69:13
6,70:13
7,8:15
7,10:15
7,11:15
7,16:15
7,17:15
7,18:5
7,19:5
7,20:5
7,21:5
7,22:5
7,24:15
7,30:15
7,41:5
7,69:13
7,70:13
8,9:15
8,15:15
8,18:20
8,19:20
8,20:10
8,21:10
8,22:10
8,41:20
8,57:15
8,58:15
8,59:15
8,68:15
8,69:28
8,70:28
9,8:15
9,10:15
9,16:15
9,17:15
9,18:5
9,19:5
9,20:5
9,21:5
9,22:5
9,24:15
9,30:15
9,41:5
9,69:13
9,70:13
10,1:15
10,2:15
10,3:15
10,4:15
10,5:15
10,6:15
10,7:15
10,15:15
10,18:20
10,19:20
10,20:10
10,21:10
10,22:10
10,41:20
10,57:15
10,58:15
10,59:15
10,68:15
10,69:28
10,70:28
11,1:15
11,2:15
11,3:15
11,4:15
11,5:15
11,6:15
11,7:15
11,15:15
11,18:20
11,19:20
11,20:10
11,21:10
11,22:10
11,41:20
11,57:15
11,58:15
11,59:15
11,68:15
11,69:28
11,70:28
12,13:20
12,14:20
12,15:15
12,18:20
12,19:20
12,20:10
12,21:10
12,22:10
12,41:20
12,57:15
12,58:15
12,59:15
12,68:15
12,69:28
12,70:28
13,15:5
13,16:20
13,17:20
13,20:10
13,21:10
13,22:10
13,23:10
13,24:20
13,30:20
13,57:5
13,58:5
13,59:5
13,68:5
13,69:8
13,70:8
14,15:5
14,16:20
14,17:20
14,20:10
14,21:10
14,22:10
14,23:10
14,24:20
14,30:20
14,57:5
14,58:5
14,59:5
14,68:5
14,69:8
14,70:8
15,8:15
15,10:15
15,11:15
15,12:15
15,13:5
15,14:5
15,16:15
15,24:15
15,30:15
15,41:5
15,69:13
15,70:13
16,1:15
16,2:15
16,3:15
16,4:15
16,5:15
16,6:15
16,7:15
16,9:15
16,13:20
16,14:20
16,18:20
16,41:20
16,68:15
16,69:28
16,70:28
17,1:15
17,2:15
17,3:15
17,4:15
17,5:15
17,6:15
17,7:15
17,9:15
17,13:20
17,14:20
17,18:20
17,19:20
17,41:20
17,68:15
17,69:28
17,70:28
18,1:5
18,2:5
18,3:5
18,4:5
18,5:5
18,6:5
18,7:5
18,8:20
18,9:5
18,10:20
18,11:20
18,12:20
18,17:20
18,24:20
18,30:20
18,68:5
18,69:8
18,70:8
19,1:5
19,2:5
19,3:5
19,4:5
19,5:5
19,6:5
19,7:5
19,8:20
19,9:5
19,10:20
19,11:20
19,12:20
19,20:10
19,22:10
19,24:20
19,30:20
19,57:5
19,68:5
19,69:8
19,70:8
20,1:5
20,2:5
20,3:5
20,4:5
20,5:5
20,6:5
20,7:5
20,8:10
20,9:5
20,10:10
20,11:10
20,12:10
20,13:10
20,14:10
20,24:10
20,30:10
20,41:10
20,57:5
20,58:5
20,59:5
20,68:5
20,69:18
20,70:18
21,1:5
21,2:5
21,3:5
21,4:5
21,5:5
21,6:5
21,7:5
21,8:10
21,9:5
21,10:10
21,11:10
21,12:10
21,13:10
21,14:10
21,24:10
21,30:10
21,41:10
21,57:5
21,58:5
21,59:5
21,68:5
21,69:18
21,70:18
22,1:5
22,2:5
22,3:5
22,4:5
22,5:5
22,6:5
22,7:5
22,8:10
22,9:5
22,10:10
22,11:10
22,12:10
22,13:10
22,14:10
22,24:10
22,30:10
22,41:10
22,57:5
22,58:5
22,59:5
22,68:5
22,69:18
22,70:18
23,24:10
23,30:10
23,33:1
23,41:10
23,57:5
23,58:5
23,59:5
23,68:5
23,69:18
23,70:18
24,1:15
24,2:15
24,3:15
24,4:15
24,6:15
24,7:15
24,9:15
24,13:20
24,14:20
24,15:15
24,18:20
24,19:20
24,20:10
24,21:10
24,22:10
24,23:10
24,25:10
24,31:10
24,32:10
24,33:11
24,34:11
24,41:20
24,57:15
24,58:15
24,59:15
24,68:15
24,69:28
24,70:28
25,26:1
25,27:1
25,28:1
25,29:1
25,30:10
25,33:1
25,34:1
25,41:10
25,57:5
25,58:5
25,59:5
25,68:5
25,69:18
25,70:18
26,30:11
26,31:1
26,32:1
26,41:9
26,57:4
26,58:4
26,59:4
26,68:4
26,69:17
26,70:17
27,30:11
27,31:1
27,32:1
27,41:9
27,57:4
27,58:4
27,59:4
27,68:4
27,69:17
27,70:17
28,30:11
28,31:1
28,32:1
28,41:9
28,57:4
28,58:4
28,59:4
28,68:4
28,69:17
28,70:17
29,30:11
29,31:1
29,32:1
29,41:9
29,57:4
29,58:4
29,59:4
29,68:4
29,69:17
29,70:17
30,1:15
30,2:15
30,3:15
30,4:15
30,6:15
30,7:15
30,9:15
30,13:20
30,14:20
30,15:15
30,18:20
30,19:20
30,20:10
30,21:10
30,22:10
30,23:10
30,25:10
30,26:11
30,27:11
30,28:11
30,29:11
30,31:10
30,33:11
30,34:11
30,41:20
30,57:15
30,58:15
30,59:15
30,68:15
30,69:28
30,70:28
31,24:10
31,26:1
31,27:1
31,28:1
31,29:1
31,33:1
31,34:1
31,41:10
31,57:5
31,58:5
31,59:5
31,68:5
31,69:18
31,70:18
32,24:10
32,26:1
32,27:1
32,28:1
32,29:1
32,33:1
32,34:1
32,35:1
32,41:10
32,57:5
32,58:5
32,59:5
32,68:5
32,69:18
32,70:18
33,24:11
33,25:1
33,30:11
33,31:1
33,32:1
33,41:9
33,57:4
33,58:4
33,59:4
33,68:4
33,69:17
33,70:17
34,24:11
34,25:1
34,30:11
34,31:1
34,32:1
34,41:9
34,57:4
34,58:4
34,59:4
34,68:4
34,69:17
34,70:17
35,36:4
35,41:9
35,48:4
35,53:12
35,56:17
35,57:4
35,58:4
35,59:4
35,60:17
35,61:17
35,68:4
35,69:17
35,70:17
36,41:5
36,44:4
36,45:8
36,46:8
36,51:4
36,52:8
36,53:8
36,54:8
36,55:13
36,56:13
36,60:13
36,61:13
36,62:4
36,63:8
36,65:13
36,66:13
36,67:13
36,69:13
36,70:13
37,41:5
37,44:4
37,45:8
37,46:8
37,51:4
37,52:8
37,53:8
37,54:8
37,55:13
37,56:13
37,60:13
37,61:13
37,62:4
37,63:8
37,65:13
37,66:13
37,67:13
37,69:13
37,70:13
38,41:5
38,44:4
38,45:8
38,46:8
38,51:4
38,52:8
38,53:8
38,54:8
38,55:13
38,56:13
38,60:13
38,61:13
38,62:4
38,63:8
38,65:13
38,66:13
38,67:13
38,69:13
38,70:13
39,41:5
39,44:4
39,45:8
39,46:8
39,51:4
39,52:8
39,53:8
39,54:8
39,55:13
39,56:13
39,60:13
39,61:13
39,62:4
39,63:8
39,65:13
39,66:13
39,67:13
39,69:13
39,70:13
40,41:5
40,44:4
40,45:8
40,46:8
40,51:4
40,52:8
40,53:8
40,54:8
40,55:13
40,56:13
40,60:13
40,61:13
40,62:4
40,63:8
40,65:13
40,66:13
40,67:13
40,69:13
40,70:13
41,2:5
41,3:5
41,4:5
41,5:5
41,6:5
41,7:5
41,8:20
41,9:5
41,10:20
41,11:20
41,12:20
41,15:5
41,16:20
41,17:20
41,20:10
41,21:10
41,22:10
41,23:10
41,24:20
41,25:10
41,26:9
41,27:9
41,28:9
41,29:9
41,30:20
41,31:10
41,32:10
41,33:9
41,34:9
41,35:9
41,36:5
41,37:5
41,38:5
41,39:5
41,40:5
41,42:5
41,44:9
41,45:3
41,46:3
41,47:5
41,48:5
41,49:5
41,51:9
41,52:3
41,53:3
41,54:3
41,55:8
41,56:8
41,57:5
41,58:5
41,59:5
41,60:8
41,61:8
41,62:9
41,63:3
41,64:5
41,65:8
41,66:8
41,67:8
41,68:5
41,69:8
41,70:8
42,44:4
42,45:8
42,46:8
42,51:4
42,52:8
42,53:8
42,54:8
42,55:13
42,56:13
42,60:13
42,61:13
42,62:4
42,63:8
42,65:13
42,66:13
42,67:13
42,69:13
42,70:13
43,44:4
43,45:8
43,46:8
43,50:13
43,51:4
43,52:8
43,53:8
43,54:8
43,55:13
43,56:13
43,60:13
43,61:13
43,62:4
43,63:8
43,65:13
43,66:13
43,67:13
43,69:13
43,70:13
44,36:4
44,37:4
44,38:4
44,39:4
44,40:4
44,41:9
44,42:4
44,43:4
44,45:12
44,48:4
44,49:4
44,52:12
44,53:12
44,54:12
44,55:17
44,56:17
44,57:4
44,58:4
44,59:4
44,60:17
44,61:17
44,63:12
44,64:4
44,65:17
44,66:17
44,67:17
44,68:4
44,69:17
44,70:17
45,36:8
45,37:8
45,38:8
45,39:8
45,40:8
45,41:3
45,42:8
45,43:8
45,48:8
45,49:8
45,51:12
45,55:5
45,56:5
45,57:8
45,58:8
45,59:8
45,60:5
45,61:5
45,62:12
45,64:8
45,65:5
45,66:5
45,67:5
45,68:8
45,69:5
45,70:5
46,36:8
46,37:8
46,38:8
46,39:8
46,40:8
46,41:3
46,42:8
46,43:8
46,47:8
46,48:8
46,49:8
46,51:12
46,55:5
46,56:5
46,57:8
46,58:8
46,59:8
46,60:5
46,61:5
46,62:12
46,64:8
46,65:5
46,66:5
46,67:5
46,68:8
46,69:5
46,70:5
47,41:5
47,50:13
47,51:4
47,52:8
47,53:8
47,54:8
47,55:13
47,56:13
47,60:13
47,61:13
47,62:4
47,63:8
47,65:13
47,66:13
47,67:13
47,69:13
47,70:13
48,41:5
48,44:4
48,45:8
48,46:8
48,51:4
48,52:8
48,53:8
48,54:8
48,55:13
48,56:13
48,60:13
48,61:13
48,62:4
48,63:8
48,65:13
48,66:13
48,67:13
48,69:13
48,70:13
49,41:5
49,44:4
49,45:8
49,46:8
49,50:13
49,51:4
49,52:8
49,53:8
49,54:8
49,55:13
49,56:13
49,60:13
49,61:13
49,62:4
49,63:8
49,65:13
49,66:13
49,67:13
49,69:13
49,70:13
50,51:17
50,52:5
50,53:5
50,54:5
50,57:13
50,58:13
50,59:13
50,62:17
50,63:5
50,64:13
50,68:13
51,36:4
51,37:4
51,38:4
51,39:4
51,40:4
51,41:9
51,42:4
51,43:4
51,45:12
51,46:12
51,47:4
51,48:4
51,49:4
51,50:17
51,52:12
51,53:12
51,56:17
51,57:4
51,58:4
51,59:4
51,60:17
51,61:17
51,63:12
51,64:4
51,65:17
51,66:17
51,67:17
51,68:4
51,69:17
51,70:17
52,36:8
52,37:8
52,38:8
52,39:8
52,40:8
52,41:3
52,42:8
52,43:8
52,44:12
52,47:8
52,48:8
52,49:8
52,50:5
52,56:5
52,57:8
52,58:8
52,59:8
52,60:5
52,61:5
52,62:12
52,64:8
52,65:5
52,66:5
52,67:5
52,68:8
52,69:5
52,70:5
53,36:8
53,37:8
53,38:8
53,39:8
53,40:8
53,41:3
53,42:8
53,43:8
53,44:12
53,47:8
53,48:8
53,49:8
53,50:5
53,51:12
53,56:5
53,57:8
53,58:8
53,59:8
53,60:5
53,61:5
53,62:12
53,64:8
53,65:5
53,66:5
53,67:5
53,68:8
53,69:5
53,70:5
54,36:8
54,37:8
54,38:8
54,39:8
54,40:8
54,41:3
54,42:8
54,43:8
54,44:12
54,47:8
54,48:8
54,49:8
54,50:5
54,55:5
54,56:5
54,57:8
54,58:8
54,59:8
54,60:5
54,61:5
54,62:12
54,64:8
54,65:5
54,66:5
54,67:5
54,68:8
54,69:5
54,70:5
55,36:13
55,37:13
55,38:13
55,39:13
55,40:13
55,41:8
55,42:13
55,43:13
55,44:17
55,45:5
55,46:5
55,47:13
55,48:13
55,49:13
55,57:13
55,58:13
55,59:13
55,62:17
55,63:5
55,64:13
55,68:13
56,36:13
56,37:13
56,38:13
56,39:13
56,40:13
56,41:8
56,42:13
56,43:13
56,44:17
56,45:5
56,46:5
56,47:13
56,48:13
56,49:13
56,51:17
56,52:5
56,53:5
56,54:5
56,57:13
56,58:13
56,59:13
56,62:17
56,63:5
56,64:13
56,68:13
57,8:15
57,10:15
57,11:15
57,12:15
57,13:5
57,14:5
57,20:5
57,21:5
57,22:5
57,23:5
57,24:15
57,25:5
57,26:4
57,27:4
57,28:4
57,29:4
57,30:15
57,31:5
57,32:5
57,33:4
57,34:4
57,35:4
57,41:5
57,44:4
57,45:8
57,46:8
57,50:13
57,51:4
57,52:8
57,53:8
57,54:8
57,55:13
57,56:13
57,61:13
57,62:4
57,63:8
57,65:13
57,66:13
57,67:13
57,69:13
57,70:13
58,8:15
58,10:15
58,11:15
58,12:15
58,13:5
58,14:5
58,20:5
58,21:5
58,22:5
58,23:5
58,24:15
58,25:5
58,26:4
58,27:4
58,28:4
58,29:4
58,30:15
58,31:5
58,32:5
58,33:4
58,34:4
58,35:4
58,41:5
58,44:4
58,45:8
58,46:8
58,50:13
58,51:4
58,52:8
58,53:8
58,54:8
58,55:13
58,56:13
58,61:13
58,62:4
58,63:8
58,65:13
58,66:13
58,67:13
58,69:13
58,70:13
59,8:15
59,10:15
59,11:15
59,12:15
59,13:5
59,14:5
59,20:5
59,21:5
59,22:5
59,23:5
59,24:15
59,25:5
59,26:4
59,27:4
59,28:4
59,29:4
59,30:15
59,31:5
59,32:5
59,33:4
59,34:4
59,35:4
59,41:5
59,44:4
59,45:8
59,46:8
59,50:13
59,51:4
59,52:8
59,53:8
59,54:8
59,55:13
59,56:13
59,60:13
59,61:13
59,62:4
59,63:8
59,65:13
59,66:13
59,67:13
59,69:13
59,70:13
60,36:13
60,37:13
60,38:13
60,39:13
60,40:13
60,41:8
60,42:13
60,43:13
60,44:17
60,45:5
60,46:5
60,47:13
60,48:13
60,49:13
60,51:17
60,52:5
60,53:5
60,54:5
60,62:17
60,63:5
60,64:13
60,68:13
61,36:13
61,37:13
61,38:13
61,39:13
61,40:13
61,41:8
61,42:13
61,43:13
61,44:17
61,45:5
61,46:5
61,47:13
61,48:13
61,49:13
61,51:17
61,52:5
61,53:5
61,54:5
61,57:13
61,58:13
61,59:13
61,62:17
61,63:5
61,64:13
61,68:13
62,36:4
62,37:4
62,38:4
62,39:4
62,40:4
62,41:9
62,42:4
62,43:4
62,45:12
62,46:12
62,47:4
62,48:4
62,49:4
62,50:17
62,52:12
62,53:12
62,54:12
62,55:17
62,56:17
62,57:4
62,58:4
62,59:4
62,60:17
62,61:17
62,63:12
62,68:4
62,69:17
62,70:17
63,36:8
63,37:8
63,38:8
63,39:8
63,40:8
63,41:3
63,42:8
63,43:8
63,44:12
63,47:8
63,48:8
63,49:8
63,50:5
63,51:12
63,55:5
63,56:5
63,57:8
63,58:8
63,59:8
63,60:5
63,61:5
63,64:8
63,68:8
63,69:5
63,70:5
64,41:5
64,44:4
64,45:8
64,46:8
64,50:13
64,51:4
64,52:8
64,53:8
64,54:8
64,55:13
64,56:13
64,60:13
64,61:13
64,65:13
64,66:13
64,67:13
64,69:13
64,70:13
65,36:13
65,37:13
65,38:13
65,39:13
65,40:13
65,41:8
65,42:13
65,43:13
65,44:17
65,45:5
65,46:5
65,47:13
65,48:13
65,49:13
65,51:17
65,52:5
65,53:5
65,54:5
65,57:13
65,58:13
65,59:13
65,68:13
66,36:13
66,37:13
66,38:13
66,39:13
66,40:13
66,41:8
66,42:13
66,43:13
66,44:17
66,45:5
66,46:5
66,47:13
66,48:13
66,49:13
66,51:17
66,52:5
66,53:5
66,54:5
66,57:13
66,58:13
66,59:13
66,68:13
67,36:13
67,37:13
67,38:13
67,39:13
67,40:13
67,41:8
67,42:13
67,43:13
67,44:17
67,45:5
67,46:5
67,47:13
67,48:13
67,49:13
67,51:17
67,52:5
67,53:5
67,54:5
67,57:13
67,58:13
67,59:13
67,68:13
68,8:15
68,10:15
68,11:15
68,12:15
68,13:5
68,14:5
68,16:15
68,17:15
68,18:5
68,19:5
68,20:5
68,21:5
68,22:5
68,23:5
68,24:15
68,25:5
68,26:4
68,27:4
68,28:4
68,29:4
68,30:15
68,31:5
68,32:5
68,33:4
68,34:4
68,35:4
68,41:5
68,44:4
68,45:8
68,46:8
68,50:13
68,51:4
68,52:8
68,53:8
68,54:8
68,55:13
68,56:13
68,60:13
68,61:13
68,62:4
68,63:8
68,65:13
68,66:13
68,67:13
68,69:13
68,70:13
69,2:13
69,3:13
69,4:13
69,5:13
69,6:13
69,7:13
69,8:28
69,9:13
69,10:28
69,11:28
69,12:28
69,13:8
69,14:8
69,15:13
69,16:28
69,17:28
69,18:8
69,19:8
69,20:18
69,21:18
69,22:18
69,23:18
69,24:28
69,25:18
69,26:17
69,27:17
69,28:17
69,29:17
69,30:28
69,31:18
69,32:18
69,33:17
69,34:17
69,35:17
69,36:13
69,37:13
69,38:13
69,39:13
69,40:13
69,41:8
69,42:13
69,43:13
69,44:17
69,45:5
69,46:5
69,47:13
69,48:13
69,49:13
69,51:17
69,52:5
69,53:5
69,54:5
69,57:13
69,58:13
69,59:13
69,62:17
69,63:5
69,64:13
69,68:13
70,2:13
70,3:13
70,4:13
70,5:13
70,6:13
70,7:13
70,8:28
70,9:13
70,10:28
70,11:28
70,12:28
70,13:8
70,14:8
70,15:13
70,16:28
70,17:28
70,18:8
70,19:8
70,20:18
70,21:18
70,22:18
70,23:18
70,24:28
70,25:18
70,26:17
70,27:17
70,28:17
70,29:17
70,30:28
70,31:18
70,32:18
70,33:17
70,34:17
70,35:17
70,36:13
70,37:13
70,38:13
70,39:13
70,40:13
70,41:8
70,42:13
70,43:13
70,44:17
70,45:5
70,46:5
70,47:13
70,48:13
70,49:13
70,51:17
70,52:5
70,53:5
70,54:5
70,57:13
70,58:13
70,59:13
70,62:17
70,63:5
70,64:13
70,68:13

<setup times backward>
1,1:1
1,5:1
1,9:1
1,15:1
1,18:6
1,19:6
1,57:1
1,58:1
1,59:1
2,1:1
2,2:1
2,5:1
2,9:1
2,15:1
2,18:6
2,19:6
2,41:6
2,57:1
2,58:1
2,59:1
2,69:14
2,70:14
3,1:1
3,2:1
3,3:1
3,5:1
3,9:1
3,15:1
3,18:6
3,19:6
3,41:6
3,57:1
3,58:1
3,59:1
3,69:14
3,70:14
4,1:1
4,2:1
4,3:1
4,4:1
4,5:1
4,9:1
4,15:1
4,18:6
4,19:6
4,41:6
4,57:1
4,58:1
4,59:1
4,68:1
4,69:14
4,70:14
5,1:1
5,2:1
5,3:1
5,4:1
5,5:1
5,7:1
5,9:1
5,15:1
5,18:6
5,19:6
5,41:6
5,57:1
5,58:1
5,59:1
5,68:1
5,69:14
5,70:14
6,1:1
6,2:1
6,3:1
6,4:1
6,5:1
6,6:1
6,7:1
6,9:1
6,15:1
6,18:6
6,19:6
6,41:6
6,57:1
6,58:1
6,59:1
6,68:1
6,69:14
6,70:14
7,1:1
7,2:1
7,3:1
7,4:1
7,5:1
7,6:1
7,7:1
7,9:1
7,15:1
7,18:6
7,19:6
7,41:6
7,57:1
7,58:1
7,59:1
7,68:1
7,69:14
7,70:14
8,1:16
8,2:16
8,3:16
8,4:16
8,5:16
8,6:16
8,7:16
8,8:1
8,9:16
8,10:1
8,11:1
8,15:16
8,16:1
8,17:1
8,18:21
8,19:21
8,20:11
8,21:11
8,22:11
8,24:1
8,30:1
8,41:21
8,57:16
8,58:16
8,59:16
8,68:16
8,69:29
8,70:29
9,1:1
9,2:1
9,3:1
9,4:1
9,5:1
9,6:1
9,7:1
9,9:1
9,15:1
9,18:6
9,19:6
9,41:6
9,57:1
9,58:1
9,59:1
9,68:1
9,69:14
9,70:14
10,1:16
10,2:16
10,3:16
10,4:16
10,5:16
10,6:16
10,7:16
10,8:1
10,9:16
10,10:1
10,15:16
10,16:1
10,17:1
10,18:21
10,19:21
10,20:11
10,21:11
10,22:11
10,24:1
10,30:1
10,41:21
10,57:16
10,58:16
10,59:16
10,68:16
10,69:29
10,70:29
11,1:16
11,2:16
11,3:16
11,4:16
11,5:16
11,6:16
11,7:16
11,8:1
11,9:16
11,10:1
11,11:1
11,15:16
11,16:1
11,17:1
11,18:21
11,19:21
11,20:11
11,21:11
11,22:11
11,24:1
11,30:1
11,41:21
11,57:16
11,58:16
11,59:16
11,68:16
11,69:29
11,70:29
12,1:16
12,2:16
12,3:16
12,4:16
12,5:16
12,6:16
12,7:16
12,8:1
12,9:16
12,10:1
12,11:1
12,12:1
12,15:16
12,16:1
12,17:1
12,18:21
12,19:21
12,20:11
12,21:11
12,22:11
12,24:1
12,30:1
12,41:21
12,57:16
12,58:16
12,59:16
12,68:16
12,69:29
12,70:29
13,13:1
13,14:1
13,18:1
13,19:1
13,41:1
13,69:9
13,70:9
14,13:1
14,14:1
14,18:1
14,19:1
14,41:1
14,69:9
14,70:9
15,1:1
15,2:1
15,3:1
15,4:1
15,5:1
15,6:1
15,7:1
15,9:1
15,13:6
15,14:6
15,15:1
15,41:6
15,68:1
15,69:14
15,70:14
16,1:16
16,2:16
16,3:16
16,4:16
16,5:16
16,6:16
16,7:16
16,8:1
16,9:16
16,10:1
16,11:1
16,12:1
16,13:21
16,14:21
16,15:16
16,16:1
16,24:1
16,30:1
16,41:21
16,68:16
16,69:29
16,70:29
17,1:16
17,2:16
17,3:16
17,4:16
17,5:16
17,6:16
17,7:16
17,8:1
17,9:16
17,10:1
17,11:1
17,12:1
17,13:21
17,14:21
17,15:16
17,16:1
17,17:1
17,18:21
17,24:1
17,30:1
17,41:21
17,68:16
17,69:29
17,70:29
18,13:1
18,14:1
18,18:1
18,41:1
18,69:9
18,70:9
19,13:1
19,14:1
19,18:1
19,19:1
19,41:1
19,69:9
19,70:9
20,1:6
20,2:6
20,3:6
20,4:6
20,5:6
20,6:6
20,7:6
20,9:6
20,13:11
20,14:11
20,15:6
20,18:11
20,19:11
20,20:1
20,22:1
20,41:11
20,57:6
20,58:6
20,59:6
20,68:6
20,69:19
20,70:19
21,1:6
21,2:6
21,3:6
21,4:6
21,5:6
21,6:6
21,7:6
21,9:6
21,13:11
21,14:11
21,15:6
21,18:11
21,19:11
21,20:1
21,21:1
21,22:1
21,41:11
21,57:6
21,58:6
21,59:6
21,68:6
21,69:19
21,70:19
22,1:6
22,2:6
22,3:6
22,4:6
22,5:6
22,6:6
22,7:6
22,9:6
22,13:11
22,14:11
22,15:6
22,18:11
22,19:11
22,20:1
22,21:1
22,22:1
22,41:11
22,57:6
22,58:6
22,59:6
22,68:6
22,69:19
22,70:19
23,1:6
23,2:6
23,3:6
23,4:6
23,5:6
23,6:6
23,7:6
23,9:6
23,13:11
23,14:11
23,15:6
23,18:11
23,19:11
23,20:1
23,21:1
23,22:1
23,23:1
23,41:11
23,57:6
23,58:6
23,59:6
23,68:6
23,69:19
23,70:19
24,1:16
24,2:16
24,3:16
24,4:16
24,5:16
24,6:16
24,7:16
24,8:1
24,9:16
24,10:1
24,11:1
24,12:1
24,13:21
24,14:21
24,15:16
24,16:1
24,17:1
24,18:21
24,19:21
24,20:11
24,21:11
24,22:11
24,23:11
24,24:1
24,30:1
24,31:11
24,32:11
24,33:12
24,34:12
24,41:21
24,57:16
24,58:16
24,59:16
24,68:16
24,69:29
24,70:29
25,1:6
25,2:6
25,3:6
25,4:6
25,5:6
25,6:6
25,7:6
25,9:6
25,13:11
25,14:11
25,15:6
25,18:11
25,19:11
25,20:1
25,21:1
25,22:1
25,23:1
25,25:1
25,31:1
25,32:1
25,33:2
25,34:2
25,41:11
25,57:6
25,58:6
25,59:6
25,68:6
25,69:19
25,70:19
26,1:5
26,2:5
26,3:5
26,4:5
26,5:5
26,6:5
26,7:5
26,9:5
26,13:10
26,14:10
26,15:5
26,18:10
26,19:10
26,26:1
26,27:1
26,28:1
26,29:1
26,33:1
26,34:1
26,41:10
26,57:5
26,58:5
26,59:5
26,68:5
26,69:18
26,70:18
27,1:5
27,2:5
27,3:5
27,4:5
27,5:5
27,6:5
27,7:5
27,9:5
27,13:10
27,14:10
27,15:5
27,18:10
27,19:10
27,26:1
27,27:1
27,28:1
27,29:1
27,33:1
27,34:1
27,41:10
27,57:5
27,58:5
27,59:5
27,68:5
27,69:18
27,70:18
28,1:5
28,2:5
28,3:5
28,4:5
28,5:5
28,6:5
28,7:5
28,9:5
28,13:10
28,14:10
28,15:5
28,18:10
28,19:10
28,26:1
28,27:1
28,28:1
28,29:1
28,33:1
28,34:1
28,41:10
28,57:5
28,58:5
28,59:5
28,68:5
28,69:18
28,70:18
29,1:5
29,2:5
29,3:5
29,4:5
29,5:5
29,6:5
29,7:5
29,9:5
29,13:10
29,14:10
29,15:5
29,18:10
29,19:10
29,26:1
29,27:1
29,28:1
29,29:1
29,33:1
29,34:1
29,41:10
29,57:5
29,58:5
29,59:5
29,68:5
29,69:18
29,70:18
30,1:16
30,2:16
30,3:16
30,4:16
30,5:16
30,6:16
30,7:16
30,8:1
30,9:16
30,10:1
30,11:1
30,12:1
30,13:21
30,14:21
30,15:16
30,16:1
30,17:1
30,18:21
30,19:21
30,20:11
30,21:11
30,22:11
30,23:11
30,24:1
30,25:11
30,26:12
30,27:12
30,28:12
30,29:12
30,30:1
30,33:12
30,34:12
30,41:21
30,57:16
30,58:16
30,59:16
30,68:16
30,69:29
30,70:29
31,1:6
31,2:6
31,3:6
31,4:6
31,5:6
31,6:6
31,7:6
31,9:6
31,13:11
31,14:11
31,15:6
31,18:11
31,19:11
31,20:1
31,21:1
31,22:1
31,23:1
31,25:1
31,26:2
31,27:2
31,28:2
31,29:2
31,31:1
31,33:2
31,34:2
31,41:11
31,57:6
31,58:6
31,59:6
31,68:6
31,69:19
31,70:19
32,1:6
32,2:6
32,3:6
32,4:6
32,5:6
32,6:6
32,7:6
32,9:6
32,13:11
32,14:11
32,15:6
32,18:11
32,19:11
32,20:1
32,21:1
32,22:1
32,23:1
32,25:1
32,26:2
32,27:2
32,28:2
32,29:2
32,31:1
32,32:1
32,33:2
32,34:2
32,41:11
32,57:6
32,58:6
32,59:6
32,68:6
32,69:19
32,70:19
33,1:5
33,2:5
33,3:5
33,4:5
33,5:5
33,6:5
33,7:5
33,9:5
33,13:10
33,14:10
33,15:5
33,18:10
33,19:10
33,26:1
33,27:1
33,28:1
33,29:1
33,33:1
33,41:10
33,57:5
33,58:5
33,59:5
33,68:5
33,69:18
33,70:18
34,1:5
34,2:5
34,3:5
34,4:5
34,5:5
34,6:5
34,7:5
34,9:5
34,13:10
34,14:10
34,15:5
34,18:10
34,19:10
34,26:1
34,27:1
34,28:1
34,29:1
34,33:1
34,34:1
34,41:10
34,57:5
34,58:5
34,59:5
34,68:5
34,69:18
34,70:18
35,1:5
35,2:5
35,3:5
35,4:5
35,5:5
35,6:5
35,7:5
35,9:5
35,13:10
35,14:10
35,15:5
35,18:10
35,19:10
35,26:1
35,27:1
35,28:1
35,29:1
35,33:1
35,34:1
35,35:1
35,41:10
35,57:5
35,58:5
35,59:5
35,68:5
35,69:18
35,70:18
36,1:1
36,2:1
36,3:1
36,4:1
36,5:1
36,6:1
36,7:1
36,9:1
36,13:6
36,14:6
36,15:1
36,18:6
36,19:6
36,36:1
36,41:6
36,45:9
36,46:9
36,47:1
36,48:1
36,49:1
36,52:9
36,53:9
36,54:9
36,55:14
36,56:14
36,57:1
36,58:1
36,59:1
36,60:14
36,61:14
36,63:9
36,64:1
36,65:14
36,66:14
36,67:14
36,68:1
36,69:14
36,70:14
37,1:1
37,2:1
37,3:1
37,4:1
37,5:1
37,6:1
37,7:1
37,9:1
37,13:6
37,14:6
37,15:1
37,18:6
37,19:6
37,36:1
37,37:1
37,41:6
37,45:9
37,46:9
37,47:1
37,48:1
37,49:1
37,52:9
37,53:9
37,54:9
37,55:14
37,56:14
37,57:1
37,58:1
37,59:1
37,60:14
37,61:14
37,63:9
37,64:1
37,65:14
37,66:14
37,67:14
37,68:1
37,69:14
37,70:14
38,1:1
38,2:1
38,3:1
38,4:1
38,5:1
38,6:1
38,7:1
38,9:1
38,13:6
38,14:6
38,15:1
38,18:6
38,19:6
38,36:1
38,37:1
38,38:1
38,41:6
38,45:9
38,46:9
38,47:1
38,48:1
38,49:1
38,52:9
38,53:9
38,54:9
38,55:14
38,56:14
38,57:1
38,58:1
38,59:1
38,60:14
38,61:14
38,63:9
38,64:1
38,65:14
38,66:14
38,67:14
38,68:1
38,69:14
38,70:14
39,1:1
39,2:1
39,3:1
39,4:1
39,5:1
39,6:1
39,7:1
39,9:1
39,13:6
39,14:6
39,15:1
39,18:6
39,19:6
39,36:1
39,37:1
39,38:1
39,39:1
39,41:6
39,45:9
39,46:9
39,47:1
39,48:1
39,49:1
39,52:9
39,53:9
39,54:9
39,55:14
39,56:14
39,57:1
39,58:1
39,59:1
39,60:14
39,61:14
39,63:9
39,64:1
39,65:14
39,66:14
39,67:14
39,68:1
39,69:14
39,70:14
40,1:1
40,2:1
40,3:1
40,4:1
40,5:1
40,6:1
40,7:1
40,9:1
40,13:6
40,14:6
40,15:1
40,18:6
40,19:6
40,36:1
40,37:1
40,38:1
40,39:1
40,40:1
40,41:6
40,45:9
40,46:9
40,47:1
40,48:1
40,49:1
40,52:9
40,53:9
40,54:9
40,55:14
40,56:14
40,57:1
40,58:1
40,59:1
40,60:14
40,61:14
40,63:9
40,64:1
40,65:14
40,66:14
40,67:14
40,68:1
40,69:14
40,70:14
41,13:1
41,14:1
41,18:1
41,19:1
41,41:1
41,45:4
41,46:4
41,52:4
41,53:4
41,54:4
41,55:9
41,56:9
41,60:9
41,61:9
41,63:4
41,65:9
41,66:9
41,67:9
41,69:9
41,70:9
42,1:1
42,2:1
42,3:1
42,4:1
42,5:1
42,6:1
42,7:1
42,9:1
42,13:6
42,14:6
42,15:1
42,18:6
42,19:6
42,36:1
42,37:1
42,38:1
42,39:1
42,40:1
42,41:6
42,42:1
42,45:9
42,46:9
42,47:1
42,48:1
42,49:1
42,52:9
42,53:9
42,54:9
42,55:14
42,56:14
42,57:1
42,58:1
42,59:1
42,60:14
42,61:14
42,63:9
42,64:1
42,65:14
42,66:14
42,67:14
42,68:1
42,69:14
42,70:14
43,1:1
43,2:1
43,3:1
43,4:1
43,5:1
43,6:1
43,7:1
43,9:1
43,13:6
43,14:6
43,15:1
43,18:6
43,19:6
43,36:1
43,37:1
43,38:1
43,39:1
43,40:1
43,41:6
43,42:1
43,43:1
43,45:9
43,46:9
43,47:1
43,48:1
43,49:1
43,52:9
43,53:9
43,54:9
43,55:14
43,56:14
43,57:1
43,58:1
43,59:1
43,60:14
43,61:14
43,63:9
43,64:1
43,65:14
43,66:14
43,67:14
43,68:1
43,69:14
43,70:14
44,1:5
44,2:5
44,3:5
44,4:5
44,5:5
44,6:5
44,7:5
44,9:5
44,13:10
44,14:10
44,15:5
44,18:10
44,19:10
44,26:1
44,27:1
44,28:1
44,29:1
44,33:1
44,34:1
44,35:1
44,36:5
44,37:5
44,38:5
44,39:5
44,40:5
44,41:10
44,42:5
44,43:5
44,44:1
44,48:5
44,49:5
44,51:1
44,52:13
44,53:13
44,54:13
44,55:18
44,56:18
44,57:5
44,58:5
44,59:5
44,60:18
44,61:18
44,62:1
44,63:13
44,64:5
44,65:18
44,66:18
44,67:18
44,68:5
44,69:18
44,70:18
45,45:1
45,52:1
45,53:1
45,54:1
45,55:6
45,56:6
45,60:6
45,61:6
45,63:1
45,65:6
45,66:6
45,67:6
45,69:6
45,70:6
46,45:1
46,46:1
46,52:1
46,53:1
46,54:1
46,55:6
46,56:6
46,60:6
46,61:6
46,63:1
46,65:6
46,66:6
46,67:6
46,69:6
46,70:6
47,1:1
47,2:1
47,3:1
47,4:1
47,5:1
47,6:1
47,7:1
47,9:1
47,13:6
47,14:6
47,15:1
47,18:6
47,19:6
47,36:1
47,37:1
47,38:1
47,39:1
47,40:1
47,41:6
47,42:1
47,43:1
47,45:9
47,46:9
47,47:1
47,48:1
47,49:1
47,52:9
47,53:9
47,54:9
47,55:14
47,56:14
47,57:1
47,58:1
47,59:1
47,60:14
47,61:14
47,63:9
47,64:1
47,65:14
47,66:14
47,67:14
47,68:1
47,69:14
47,70:14
48,1:1
48,2:1
48,3:1
48,4:1
48,5:1
48,6:1
48,7:1
48,9:1
48,13:6
48,14:6
48,15:1
48,18:6
48,19:6
48,36:1
48,37:1
48,38:1
48,39:1
48,40:1
48,41:6
48,42:1
48,43:1
48,45:9
48,46:9
48,47:1
48,48:1
48,52:9
48,53:9
48,54:9
48,55:14
48,56:14
48,57:1
48,58:1
48,59:1
48,60:14
48,61:14
48,63:9
48,64:1
48,65:14
48,66:14
48,67:14
48,68:1
48,69:14
48,70:14
49,1:1
49,2:1
49,3:1
49,4:1
49,5:1
49,6:1
49,7:1
49,9:1
49,13:6
49,14:6
49,15:1
49,18:6
49,19:6
49,36:1
49,37:1
49,38:1
49,39:1
49,40:1
49,41:6
49,42:1
49,43:1
49,45:9
49,46:9
49,47:1
49,48:1
49,49:1
49,52:9
49,53:9
49,54:9
49,55:14
49,56:14
49,57:1
49,58:1
49,59:1
49,60:14
49,61:14
49,63:9
49,64:1
49,65:14
49,66:14
49,67:14
49,68:1
49,69:14
49,70:14
50,50:1
50,55:1
50,56:1
50,60:1
50,61:1
50,65:1
50,66:1
50,67:1
50,69:1
50,70:1
51,1:5
51,2:5
51,3:5
51,4:5
51,5:5
51,6:5
51,7:5
51,9:5
51,13:10
51,14:10
51,15:5
51,18:10
51,19:10
51,26:1
51,27:1
51,28:1
51,29:1
51,33:1
51,34:1
51,35:1
51,36:5
51,37:5
51,38:5
51,39:5
51,40:5
51,41:10
51,42:5
51,43:5
51,44:1
51,45:13
51,46:13
51,47:5
51,48:5
51,49:5
51,50:18
51,51:1
51,53:13
51,56:18
51,57:5
51,58:5
51,59:5
51,60:18
51,61:18
51,62:1
51,63:13
51,64:5
51,65:18
51,66:18
51,67:18
51,68:5
51,69:18
51,70:18
52,45:1
52,46:1
52,50:6
52,52:1
52,53:1
52,56:6
52,60:6
52,61:6
52,63:1
52,65:6
52,66:6
52,67:6
52,69:6
52,70:6
53,45:1
53,46:1
53,50:6
53,52:1
53,53:1
53,56:6
53,60:6
53,61:6
53,63:1
53,65:6
53,66:6
53,67:6
53,69:6
53,70:6
54,45:1
54,46:1
54,50:6
54,52:1
54,53:1
54,54:1
54,56:6
54,60:6
54,61:6
54,63:1
54,65:6
54,66:6
54,67:6
54,69:6
54,70:6
55,50:1
55,55:1
55,56:1
55,60:1
55,61:1
55,65:1
55,66:1
55,67:1
55,69:1
55,70:1
56,50:1
56,55:1
56,56:1
56,60:1
56,61:1
56,65:1
56,66:1
56,67:1
56,69:1
56,70:1
57,1:1
57,2:1
57,3:1
57,4:1
57,5:1
57,6:1
57,7:1
57,9:1
57,13:6
57,14:6
57,15:1
57,18:6
57,19:6
57,36:1
57,37:1
57,38:1
57,39:1
57,40:1
57,41:6
57,42:1
57,43:1
57,45:9
57,46:9
57,47:1
57,48:1
57,49:1
57,50:14
57,52:9
57,53:9
57,54:9
57,55:14
57,56:14
57,57:1
57,61:14
57,63:9
57,64:1
57,65:14
57,66:14
57,67:14
57,68:1
57,69:14
57,70:14
58,1:1
58,2:1
58,3:1
58,4:1
58,5:1
58,6:1
58,7:1
58,9:1
58,13:6
58,14:6
58,15:1
58,18:6
58,19:6
58,36:1
58,37:1
58,38:1
58,39:1
58,40:1
58,41:6
58,42:1
58,43:1
58,45:9
58,46:9
58,47:1
58,48:1
58,49:1
58,50:14
58,52:9
58,53:9
58,54:9
58,55:14
58,56:14
58,57:1
58,58:1
58,61:14
58,63:9
58,64:1
58,65:14
58,66:14
58,67:14
58,68:1
58,69:14
58,70:14
59,1:1
59,2:1
59,3:1
59,4:1
59,5:1
59,6:1
59,7:1
59,9:1
59,13:6
59,14:6
59,15:1
59,18:6
59,19:6
59,36:1
59,37:1
59,38:1
59,39:1
59,40:1
59,41:6
59,42:1
59,43:1
59,45:9
59,46:9
59,47:1
59,48:1
59,49:1
59,50:14
59,52:9
59,53:9
59,54:9
59,55:14
59,56:14
59,57:1
59,58:1
59,59:1
59,61:14
59,63:9
59,64:1
59,65:14
59,66:14
59,67:14
59,68:1
59,69:14
59,70:14
60,50:1
60,55:1
60,56:1
60,60:1
60,61:1
60,65:1
60,66:1
60,67:1
60,69:1
60,70:1
61,50:1
61,55:1
61,56:1
61,60:1
61,61:1
61,66:1
61,67:1
61,69:1
61,70:1
62,1:5
62,2:5
62,3:5
62,4:5
62,5:5
62,6:5
62,7:5
62,9:5
62,13:10
62,14:10
62,15:5
62,18:10
62,19:10
62,26:1
62,27:1
62,28:1
62,29:1
62,33:1
62,34:1
62,35:1
62,36:5
62,37:5
62,38:5
62,39:5
62,40:5
62,41:10
62,42:5
62,43:5
62,44:1
62,45:13
62,46:13
62,47:5
62,48:5
62,49:5
62,50:18
62,51:1
62,52:13
62,53:13
62,54:13
62,55:18
62,56:18
62,57:5
62,58:5
62,59:5
62,60:18
62,61:18
62,62:1
62,68:5
62,69:18
62,70:18
63,45:1
63,46:1
63,50:6
63,52:1
63,53:1
63,54:1
63,55:6
63,56:6
63,60:6
63,61:6
63,63:1
63,69:6
63,70:6
64,1:1
64,2:1
64,3:1
64,4:1
64,5:1
64,6:1
64,7:1
64,9:1
64,13:6
64,14:6
64,15:1
64,18:6
64,19:6
64,36:1
64,37:1
64,38:1
64,39:1
64,40:1
64,41:6
64,42:1
64,43:1
64,45:9
64,46:9
64,47:1
64,48:1
64,49:1
64,50:14
64,52:9
64,53:9
64,54:9
64,55:14
64,56:14
64,57:1
64,58:1
64,59:1
64,60:14
64,61:14
64,63:9
64,64:1
64,68:1
64,69:14
64,70:14
65,50:1
65,55:1
65,56:1
65,60:1
65,61:1
65,65:1
65,66:1
65,67:1
65,69:1
65,70:1
66,50:1
66,55:1
66,56:1
66,60:1
66,61:1
66,65:1
66,66:1
66,67:1
66,69:1
66,70:1
67,50:1
67,55:1
67,56:1
67,60:1
67,61:1
67,65:1
67,66:1
67,67:1
67,69:1
67,70:1
68,1:1
68,2:1
68,3:1
68,4:1
68,5:1
68,6:1
68,7:1
68,9:1
68,13:6
68,14:6
68,15:1
68,18:6
68,19:6
68,36:1
68,37:1
68,38:1
68,39:1
68,40:1
68,41:6
68,42:1
68,43:1
68,45:9
68,46:9
68,47:1
68,48:1
68,49:1
68,50:14
68,52:9
68,53:9
68,54:9
68,55:14
68,56:14
68,57:1
68,58:1
68,59:1
68,60:14
68,61:14
68,63:9
68,64:1
68,65:14
68,66:14
68,67:14
68,68:1
68,69:14
68,70:14
69,50:1
69,55:1
69,56:1
69,60:1
69,61:1
69,65:1
69,66:1
69,67:1
69,69:1
69,70:1
70,50:1
70,55:1
70,56:1
70,60:1
70,61:1
70,65:1
70,66:1
70,67:1
70,69:1
70,70:1

<end>

<optimal SALBP-1 value>
8


<rand seed>
467321153

